(set-logic QF_LIA)
(declare-fun x0 () Int)
(declare-fun x1 () Int)
(declare-fun x2 () Int)
(declare-fun x3 () Int)
(declare-fun x4 () Int)
(declare-fun x5 () Int)
(declare-fun x6 () Int)
(declare-fun x7 () Int)
(declare-fun x8 () Int)
(declare-fun x9 () Int)
(declare-fun A0 () Bool)
(declare-fun A1 () Bool)
(declare-fun A2 () Bool)
(declare-fun A3 () Bool)
(declare-fun A4 () Bool)
(declare-fun A5 () Bool)
(declare-fun A6 () Bool)
(declare-fun A7 () Bool)
(declare-fun A8 () Bool)
(declare-fun A9 () Bool)
(assert (let ((.def_0 (* (- 1) x7))) (let ((.def_1 (< .def_0 (- 1)))) (let ((.def_2 (not .def_1))) (let ((.def_3 (* (- 1) x1))) (let ((.def_4 (< .def_3 1))) (let ((.def_5 (not .def_4))) (let ((.def_6 (and .def_5 .def_2))) (let ((.def_7 (* 1 x7))) (let ((.def_8 (< .def_7 1))) (let ((.def_9 (< .def_3 (- 1)))) (let ((.def_10 (and .def_9 .def_8))) (let ((.def_11 (not .def_10))) (let ((.def_12 (and .def_11 .def_6))) (let ((.def_13 (* (- 1) x8))) (let ((.def_14 (* 1 x9))) (let ((.def_15 (+ .def_14 .def_13))) (let ((.def_16 (< .def_15 1))) (let ((.def_17 (not .def_16))) (let ((.def_18 (= A3 .def_17))) (let ((.def_19 (not .def_18))) (let ((.def_20 (* 1 x6))) (let ((.def_21 (* 1 x2))) (let ((.def_22 (+ .def_21 .def_20))) (let ((.def_23 (< .def_22 (- 1)))) (let ((.def_24 (* 1 x0))) (let ((.def_25 (< .def_24 (- 1)))) (let ((.def_26 (not .def_25))) (let ((.def_27 (= .def_26 .def_23))) (let ((.def_28 (not .def_27))) (let ((.def_29 (= .def_28 .def_19))) (let ((.def_30 (not .def_29))) (let ((.def_31 (or .def_30 .def_12))) (let ((.def_32 (* (- 1) x2))) (let ((.def_33 (< .def_32 1))) (let ((.def_34 (* 1 x5))) (let ((.def_35 (+ .def_21 .def_34))) (let ((.def_36 (< .def_35 (- 1)))) (let ((.def_37 (or .def_36 .def_33))) (let ((.def_38 (not A5))) (let ((.def_39 (or .def_38 .def_38))) (let ((.def_40 (not .def_39))) (let ((.def_41 (and .def_40 .def_37))) (let ((.def_42 (not .def_41))) (let ((.def_43 (or A3 A8))) (let ((.def_44 (not A9))) (let ((.def_45 (* (- 1) x9))) (let ((.def_46 (< .def_45 1))) (let ((.def_47 (not .def_46))) (let ((.def_48 (and .def_47 .def_44))) (let ((.def_49 (or .def_48 .def_43))) (let ((.def_50 (not .def_49))) (let ((.def_51 (and .def_50 .def_42))) (let ((.def_52 (not .def_51))) (let ((.def_53 (= .def_52 .def_31))) (let ((.def_54 (not .def_53))) (let ((.def_55 (+ .def_32 .def_7))) (let ((.def_56 (< .def_55 1))) (let ((.def_57 (not .def_56))) (let ((.def_58 (not A1))) (let ((.def_59 (and .def_58 .def_57))) (let ((.def_60 (not .def_59))) (let ((.def_61 (and .def_38 A6))) (let ((.def_62 (and .def_61 .def_60))) (let ((.def_63 (not .def_62))) (let ((.def_64 (* (- 1) x6))) (let ((.def_65 (+ .def_3 .def_64))) (let ((.def_66 (< .def_65 1))) (let ((.def_67 (or .def_66 .def_58))) (let ((.def_68 (+ .def_34 .def_21))) (let ((.def_69 (< .def_68 (- 1)))) (let ((.def_70 (not .def_69))) (let ((.def_71 (or .def_33 .def_70))) (let ((.def_72 (or .def_71 .def_67))) (let ((.def_73 (or .def_72 .def_63))) (let ((.def_74 (not .def_73))) (let ((.def_75 (not A3))) (let ((.def_76 (and .def_75 .def_44))) (let ((.def_77 (not .def_76))) (let ((.def_78 (not A7))) (let ((.def_79 (or A5 .def_78))) (let ((.def_80 (and .def_79 .def_77))) (let ((.def_81 (< .def_14 1))) (let ((.def_82 (* 1 x4))) (let ((.def_83 (+ .def_82 .def_21))) (let ((.def_84 (< .def_83 (- 1)))) (let ((.def_85 (not .def_84))) (let ((.def_86 (and .def_85 .def_81))) (let ((.def_87 (* 1 x1))) (let ((.def_88 (+ .def_87 .def_21))) (let ((.def_89 (< .def_88 (- 1)))) (let ((.def_90 (not .def_89))) (let ((.def_91 (< .def_13 (- 1)))) (let ((.def_92 (or .def_91 .def_90))) (let ((.def_93 (and .def_92 .def_86))) (let ((.def_94 (not .def_93))) (let ((.def_95 (or .def_94 .def_80))) (let ((.def_96 (not .def_95))) (let ((.def_97 (or .def_96 .def_74))) (let ((.def_98 (not .def_97))) (let ((.def_99 (or .def_98 .def_54))) (let ((.def_100 (not .def_99))) (let ((.def_101 (or .def_44 .def_58))) (let ((.def_102 (not .def_101))) (let ((.def_103 (+ .def_0 .def_14))) (let ((.def_104 (< .def_103 (- 1)))) (let ((.def_105 (not .def_104))) (let ((.def_106 (and .def_105 A5))) (let ((.def_107 (not .def_106))) (let ((.def_108 (and .def_107 .def_102))) (let ((.def_109 (not .def_108))) (let ((.def_110 (< .def_20 (- 1)))) (let ((.def_111 (not A4))) (let ((.def_112 (or .def_111 .def_110))) (let ((.def_113 (not .def_112))) (let ((.def_114 (or A3 .def_75))) (let ((.def_115 (or .def_114 .def_113))) (let ((.def_116 (= .def_115 .def_109))) (let ((.def_117 (not .def_116))) (let ((.def_118 (and .def_78 .def_44))) (let ((.def_119 (not .def_118))) (let ((.def_120 (* (- 1) x3))) (let ((.def_121 (< .def_120 (- 1)))) (let ((.def_122 (< .def_34 1))) (let ((.def_123 (not .def_122))) (let ((.def_124 (and .def_123 .def_121))) (let ((.def_125 (or .def_124 .def_119))) (let ((.def_126 (* (- 1) x5))) (let ((.def_127 (+ .def_14 .def_126))) (let ((.def_128 (< .def_127 1))) (let ((.def_129 (not .def_128))) (let ((.def_130 (or .def_129 .def_75))) (let ((.def_131 (not .def_130))) (let ((.def_132 (* 1 x8))) (let ((.def_133 (< .def_132 1))) (let ((.def_134 (+ .def_64 .def_14))) (let ((.def_135 (< .def_134 1))) (let ((.def_136 (and .def_135 .def_133))) (let ((.def_137 (= .def_136 .def_131))) (let ((.def_138 (not .def_137))) (let ((.def_139 (or .def_138 .def_125))) (let ((.def_140 (and .def_139 .def_117))) (let ((.def_141 (not A2))) (let ((.def_142 (< .def_64 (- 1)))) (let ((.def_143 (not .def_142))) (let ((.def_144 (or .def_143 .def_141))) (let ((.def_145 (not .def_144))) (let ((.def_146 (* (- 1) x4))) (let ((.def_147 (+ .def_146 .def_126))) (let ((.def_148 (< .def_147 1))) (let ((.def_149 (not A0))) (let ((.def_150 (or .def_149 .def_148))) (let ((.def_151 (and .def_150 .def_145))) (let ((.def_152 (not .def_151))) (let ((.def_153 (+ .def_120 .def_45))) (let ((.def_154 (< .def_153 (- 1)))) (let ((.def_155 (not .def_154))) (let ((.def_156 (and .def_58 .def_155))) (let ((.def_157 (< .def_7 (- 1)))) (let ((.def_158 (not .def_157))) (let ((.def_159 (< .def_21 1))) (let ((.def_160 (not .def_159))) (let ((.def_161 (= .def_160 .def_158))) (let ((.def_162 (not .def_161))) (let ((.def_163 (and .def_162 .def_156))) (let ((.def_164 (and .def_163 .def_152))) (let ((.def_165 (not .def_164))) (let ((.def_166 (not .def_121))) (let ((.def_167 (= .def_166 A9))) (let ((.def_168 (< .def_88 1))) (let ((.def_169 (not .def_168))) (let ((.def_170 (+ .def_146 .def_120))) (let ((.def_171 (< .def_170 (- 1)))) (let ((.def_172 (not .def_171))) (let ((.def_173 (or .def_172 .def_169))) (let ((.def_174 (not .def_173))) (let ((.def_175 (= .def_174 .def_167))) (let ((.def_176 (not .def_175))) (let ((.def_177 (or A1 A0))) (let ((.def_178 (not .def_177))) (let ((.def_179 (and .def_38 .def_58))) (let ((.def_180 (not .def_179))) (let ((.def_181 (or .def_180 .def_178))) (let ((.def_182 (or .def_181 .def_176))) (let ((.def_183 (not .def_182))) (let ((.def_184 (and .def_183 .def_165))) (let ((.def_185 (not .def_184))) (let ((.def_186 (and .def_185 .def_140))) (let ((.def_187 (not .def_186))) (let ((.def_188 (and .def_187 .def_100))) (let ((.def_189 (<= x9 1))) (let ((.def_190 (<= 0 x9))) (let ((.def_191 (<= x8 1))) (let ((.def_192 (<= 0 x8))) (let ((.def_193 (<= x7 1))) (let ((.def_194 (<= 0 x7))) (let ((.def_195 (<= x6 1))) (let ((.def_196 (<= 0 x6))) (let ((.def_197 (<= x5 1))) (let ((.def_198 (<= 0 x5))) (let ((.def_199 (<= x4 1))) (let ((.def_200 (<= 0 x4))) (let ((.def_201 (<= x3 1))) (let ((.def_202 (<= 0 x3))) (let ((.def_203 (<= x2 1))) (let ((.def_204 (<= 0 x2))) (let ((.def_205 (<= x1 1))) (let ((.def_206 (<= 0 x1))) (let ((.def_207 (<= x0 1))) (let ((.def_208 (<= 0 x0))) (let ((.def_209 (and .def_208 .def_207 .def_206 .def_205 .def_204 .def_203 .def_202 .def_201 .def_200 .def_199 .def_198 .def_197 .def_196 .def_195 .def_194 .def_193 .def_192 .def_191 .def_190 .def_189 .def_188))) .def_209)))))))))))))))))))))))))))))))))))))))))))))))))))))))))))))))))))))))))))))))))))))))))))))))))))))))))))))))))))))))))))))))))))))))))))))))))))))))))))))))))))))))))))))))))))))))))))))))))))))))))))))))))))
(check-sat)
